sat
(:added-eqs                       9597
 :arith-eq-adapter                838
 :arith-bound-propagations-lp     313
 :arith-branch                    25
 :arith-conflicts                 2185
 :arith-cube-calls                10
 :arith-diseq                     1658
 :arith-fixed-eqs                 348
 :arith-gcd-calls                 141
 :arith-gomory-cuts               4
 :arith-grobner-calls             247
 :arith-grobner-conflicts         145
 :arith-hnf-calls                 2
 :arith-horner-calls              67
 :arith-horner-conflicts          3
 :arith-horner-cross-nested-forms 27537
 :arith-lower                     2791
 :arith-make-feasible             3568
 :arith-max-columns               1858
 :arith-max-rows                  864
 :arith-nla-add-bounds            50
 :arith-nla-lemmas                1653
 :arith-nla-propagate-bounds      404
 :arith-nla-propagate-eq          10363
 :arith-nra-calls                 31
 :arith-offset-eqs                1805
 :arith-patches                   141
 :arith-patches-success           105
 :arith-upper                     5961
 :binary-propagations             7382
 :cnf-encoding-aux-vars           28
 :conflicts                       222
 :decisions                       19332
 :del-clause                      2543
 :elim-unconstrained              23
 :final-checks                    464
 :max-memory                      101.79
 :memory                          58.20
 :minimized-lits                  100
 :mk-bool-var                     7370
 :mk-clause                       3312
 :mk-clause-binary                8715
 :nlsat-conflicts                 3232
 :nlsat-decisions                 487
 :nlsat-propagations              190521
 :nlsat-restarts                  5
 :nlsat-stages                    140616
 :num-allocs                      4969776515.00
 :num-checks                      1
 :propagations                    13519
 :restarts                        2
 :rlimit-count                    3703326
 :sat-mk-clause-2ary              130619
 :sat-mk-clause-nary              193841
 :sat-mk-var                      93267
 :solve-eqs-elim-vars             147
 :solve-eqs-steps                 2446
 :time                            2.61
 :total-time                      2.62)
